MARKOV
1007
 2 2 2 2 2 2 2 2 2 2 2 2 2 2 2 2 2 2 2 2 2 2 2 2 2 2 2 2 2 2 2 2 2 2 2 2 2 2 2 2 2 2 2 2 2 2 2 2 2 2 2 2 2 2 2 2 2 2 2 2 2 2 2 2 2 2 2 2 2 2 2 2 2 2 2 2 2 2 2 2 2 2 2 2 2 2 2 2 2 2 2 2 2 2 2 2 2 2 2 2 2 2 2 2 2 2 2 2 2 2 2 2 2 2 2 2 2 2 2 2 2 2 2 2 2 2 2 2 2 2 2 2 2 2 2 2 2 2 2 2 2 2 2 2 2 2 2 2 2 2 2 2 2 2 2 2 2 2 2 2 2 2 2 2 2 2 2 2 2 2 2 2 2 2 2 2 2 2 2 2 2 2 2 2 2 2 2 2 2 2 2 2 2 2 2 2 2 2 2 2 2 2 2 2 2 2 2 2 2 2 2 2 2 2 2 2 2 2 2 2 2 2 2 2 2 2 2 2 2 2 2 2 2 2 2 2 2 2 2 2 2 2 2 2 2 2 2 2 2 2 2 2 2 2 2 2 2 2 2 2 2 2 2 2 2 2 2 2 2 2 2 2 2 2 2 2 2 2 2 2 2 2 2 2 2 2 2 2 2 2 2 2 2 2 2 2 2 2 2 2 2 2 2 2 2 2 2 2 2 2 2 2 2 2 2 2 2 2 2 2 2 2 2 2 2 2 2 2 2 2 2 2 2 2 2 2 2 2 2 2 2 2 2 2 2 2 2 2 2 2 2 2 2 2 2 2 2 2 2 2 2 2 2 2 2 2 2 2 2 2 2 2 2 2 2 2 2 2 2 2 2 2 2 2 2 2 2 2 2 2 2 2 2 2 2 2 2 2 2 2 2 2 2 2 2 2 2 2 2 2 2 2 2 2 2 2 2 2 2 2 2 2 2 2 2 2 2 2 2 2 2 2 2 2 2 2 2 2 2 2 2 2 2 2 2 2 2 2 2 2 2 2 2 2 2 2 2 2 2 2 2 2 2 2 2 2 2 2 2 2 2 2 2 2 2 2 2 2 2 2 2 2 2 2 2 2 2 2 2 2 2 2 2 2 2 2 2 2 2 2 2 2 2 2 2 2 2 2 2 2 2 2 2 2 2 2 2 2 2 2 2 2 2 2 2 2 2 2 2 2 2 2 2 2 2 2 2 2 2 2 2 2 2 2 2 2 2 2 2 2 2 2 2 2 2 2 2 2 2 2 2 2 2 2 2 2 2 2 2 2 2 2 2 2 2 2 2 2 2 2 2 2 2 2 2 2 2 2 2 2 2 2 2 2 2 2 2 2 2 2 2 2 2 2 2 2 2 2 2 2 2 2 2 2 2 2 2 2 2 2 2 2 2 2 2 2 2 2 2 2 2 2 2 2 2 2 2 2 2 2 2 2 2 2 2 2 2 2 2 2 2 2 2 2 2 2 2 2 2 2 2 2 2 2 2 2 2 2 2 2 2 2 2 2 2 2 2 2 2 2 2 2 2 2 2 2 2 2 2 2 2 2 2 2 2 2 2 2 2 2 2 2 2 2 2 2 2 2 2 2 2 2 2 2 2 2 2 2 2 2 2 2 2 2 2 2 2 2 2 2 2 2 2 2 2 2 2 2 2 2 2 2 2 2 2 2 2 2 2 2 2 2 2 2 2 2 2 2 2 2 2 2 2 2 2 2 2 2 2 2 2 2 2 2 2 2 2 2 2 2 2 2 2 2 2 2 2 2 2 2 2 2 2 2 2 2 2 2 2 2 2 2 2 2 2 2 2 2 2 2 2 2 2 2 2 2 2 2 2 2 2 2 2 2 2 2 2 2 2 2 2 2 2 2 2 2 2 2 2 2 2 2 2 2 2 2 2 2 2 2 2 2 2 2 2 2 2 2 2 2 2 2 2 2 2 2 2 2 2 2 2 2 2 2 2 2 2 2 2 2 2 2 2 2 2 2 2 2 2 2 2 2 2 2 2 2 2 2 2 2 2 2 2 2 2 2 2 2 2 2 2 2 2 2 2 2 2 2 2 2 2 2 2 2 2 2 2 2 2 2 2 2 2 2 2 2 2 2 2 2 2 2 2 2 2 2 2 2 2 2 2 2 2 2 2 2 2 2 2 2 2 2 2 2 2 2 2 2 2 2 2 2 2 2 2 2 2 2 2 2 2 2 2 2 2 2 2 2 2 2 2 2 2 2 2 2 2 2 2 2 2 2 2 2 2 2 2
1023
3	31 110 1006 
3	140 1005 1006 
3	119 1004 1005 
3	50 1003 1004 
3	386 1002 1003 
1	1002 
3	125 311 1001 
3	217 1000 1001 
3	225 999 1000 
3	304 998 999 
3	185 997 998 
3	253 996 997 
3	197 995 996 
3	4 994 995 
3	399 993 994 
3	30 992 993 
3	11 991 992 
3	218 990 991 
3	325 989 990 
3	127 988 989 
3	394 987 988 
3	135 986 987 
3	104 985 986 
3	247 984 985 
3	77 983 984 
3	337 982 983 
3	132 981 982 
3	375 980 981 
3	215 979 980 
3	105 978 979 
3	413 977 978 
3	123 976 977 
3	18 975 976 
3	51 974 975 
3	264 973 974 
3	162 972 973 
3	34 971 972 
3	26 970 971 
3	403 969 970 
3	236 968 969 
3	203 967 968 
3	303 966 967 
3	354 965 966 
3	64 964 965 
3	69 963 964 
3	54 962 963 
3	164 961 962 
3	139 960 961 
3	406 959 960 
3	59 958 959 
3	266 957 958 
3	9 956 957 
3	85 955 956 
3	201 954 955 
3	96 953 954 
3	424 952 953 
3	235 951 952 
3	233 950 951 
3	302 949 950 
3	66 948 949 
3	436 947 948 
3	296 946 947 
3	333 945 946 
3	148 944 945 
3	91 943 944 
3	113 942 943 
3	305 941 942 
3	52 940 941 
3	156 939 940 
1	939 
3	15 159 938 
1	938 
3	101 198 937 
3	12 936 937 
3	435 935 936 
3	403 934 935 
3	206 933 934 
3	294 932 933 
3	268 931 932 
3	380 930 931 
3	188 929 930 
3	195 928 929 
3	361 927 928 
3	35 926 927 
3	357 925 926 
3	287 924 925 
3	385 923 924 
3	241 922 923 
3	173 921 922 
3	181 920 921 
3	6 919 920 
3	238 918 919 
1	918 
1	283 
1	151 
3	46 53 917 
3	81 916 917 
3	28 915 916 
3	74 914 915 
3	70 913 914 
3	410 912 913 
3	179 911 912 
3	262 910 911 
1	910 
3	130 252 909 
3	84 908 909 
3	383 907 908 
3	412 906 907 
3	279 905 906 
3	261 904 905 
3	335 903 904 
3	35 902 903 
3	216 901 902 
3	433 900 901 
3	343 899 900 
1	899 
3	339 349 898 
3	109 897 898 
3	141 896 897 
3	392 895 896 
3	191 894 895 
3	71 893 894 
3	78 892 893 
3	433 891 892 
3	145 890 891 
3	415 889 890 
3	299 888 889 
3	251 887 888 
3	175 886 887 
3	58 885 886 
3	220 884 885 
3	200 883 884 
3	47 882 883 
3	340 881 882 
3	381 880 881 
3	404 879 880 
3	370 878 879 
3	318 877 878 
3	243 876 877 
3	403 875 876 
3	412 874 875 
3	387 873 874 
3	126 872 873 
3	397 871 872 
3	374 870 871 
3	151 869 870 
3	187 868 869 
3	155 867 868 
3	383 866 867 
3	140 865 866 
3	89 864 865 
3	23 863 864 
3	166 862 863 
3	241 861 862 
3	376 860 861 
3	167 859 860 
3	391 858 859 
3	321 857 858 
3	67 856 857 
3	116 855 856 
3	335 854 855 
3	170 853 854 
3	428 852 853 
3	138 851 852 
3	120 850 851 
3	171 849 850 
3	79 848 849 
3	408 847 848 
3	254 846 847 
3	398 845 846 
3	130 844 845 
3	132 843 844 
3	272 842 843 
3	118 841 842 
3	19 840 841 
3	221 839 840 
3	99 838 839 
3	98 837 838 
3	417 836 837 
3	369 835 836 
3	360 834 835 
3	310 833 834 
3	39 832 833 
3	94 831 832 
3	7 830 831 
3	312 829 830 
3	92 828 829 
3	237 827 828 
3	252 826 827 
3	112 825 826 
3	319 824 825 
3	33 823 824 
3	152 822 823 
3	261 821 822 
3	194 820 821 
3	216 819 820 
3	364 818 819 
3	402 817 818 
3	341 816 817 
3	343 815 816 
3	139 814 815 
3	13 813 814 
3	277 812 813 
3	103 811 812 
3	93 810 811 
3	279 809 810 
3	275 808 809 
3	195 807 808 
3	192 806 807 
3	411 805 806 
3	161 804 805 
3	356 803 804 
3	305 802 803 
3	211 801 802 
3	219 800 801 
3	169 799 800 
3	90 798 799 
3	0 797 798 
3	298 796 797 
3	409 795 796 
3	74 794 795 
3	100 793 794 
3	65 792 793 
3	308 791 792 
3	405 790 791 
3	11 789 790 
3	353 788 789 
3	419 787 788 
3	50 786 787 
3	386 785 786 
3	84 784 785 
3	10 783 784 
3	418 782 783 
3	274 781 782 
3	146 780 781 
3	338 779 780 
3	106 778 779 
3	204 777 778 
3	389 776 777 
3	331 775 776 
3	395 774 775 
3	24 773 774 
3	111 772 773 
3	193 771 772 
3	323 770 771 
3	426 769 770 
3	286 768 769 
3	56 767 768 
3	212 766 767 
3	367 765 766 
3	154 764 765 
3	256 763 764 
3	328 762 763 
3	301 761 762 
3	294 760 761 
3	245 759 760 
3	242 758 759 
3	267 757 758 
3	209 756 757 
3	128 755 756 
3	324 754 755 
3	390 753 754 
3	348 752 753 
3	190 751 752 
3	371 750 751 
3	379 749 750 
3	214 748 749 
3	260 747 748 
3	435 746 747 
3	344 745 746 
3	3 744 745 
3	40 743 744 
3	55 742 743 
3	48 741 742 
3	158 740 741 
3	315 739 740 
3	259 738 739 
3	400 737 738 
3	313 736 737 
3	25 735 736 
3	292 734 735 
3	427 733 734 
3	362 732 733 
3	35 731 732 
3	287 730 731 
3	281 729 730 
3	244 728 729 
3	432 727 728 
3	236 726 727 
3	134 725 726 
3	86 724 725 
3	80 723 724 
3	75 722 723 
3	350 721 722 
3	22 720 721 
3	20 719 720 
3	8 718 719 
3	83 717 718 
3	43 716 717 
3	276 715 716 
3	289 714 715 
3	95 713 714 
3	248 712 713 
1	712 
3	169 339 711 
3	121 710 711 
3	227 709 710 
3	124 708 709 
3	183 707 708 
3	409 706 707 
3	74 705 706 
3	189 704 705 
3	100 703 704 
3	141 702 703 
3	88 701 702 
3	174 700 701 
3	316 699 700 
3	405 698 699 
3	308 697 698 
3	133 696 697 
3	71 695 696 
3	229 694 695 
3	11 693 694 
3	114 692 693 
3	288 691 692 
3	320 690 691 
3	258 689 690 
3	336 688 689 
3	213 687 688 
3	36 686 687 
3	337 685 686 
3	422 684 685 
3	137 683 684 
3	184 682 683 
3	5 681 682 
3	84 680 681 
3	131 679 680 
3	251 678 679 
3	10 677 678 
3	429 676 677 
3	388 675 676 
3	410 674 675 
3	58 673 674 
3	102 672 673 
3	338 671 672 
3	182 670 671 
3	72 669 670 
3	49 668 669 
3	257 667 668 
3	73 666 667 
3	106 665 666 
3	172 664 665 
3	249 663 664 
3	210 662 663 
3	2 661 662 
3	87 660 661 
3	423 659 660 
3	387 658 659 
3	126 657 658 
3	177 656 657 
3	273 655 656 
3	144 654 655 
3	323 653 654 
3	342 652 653 
3	108 651 652 
3	56 650 651 
3	367 649 650 
3	232 648 649 
3	59 647 648 
3	196 646 647 
3	301 645 646 
3	346 644 645 
3	228 643 644 
3	85 642 643 
3	153 641 642 
3	207 640 641 
3	45 639 640 
3	38 638 639 
3	97 637 638 
3	355 636 637 
3	270 635 636 
3	239 634 635 
3	115 633 634 
3	61 632 633 
3	384 631 632 
3	434 630 631 
3	348 629 630 
3	117 628 629 
3	223 627 628 
3	190 626 627 
3	180 625 626 
3	371 624 625 
3	358 623 624 
3	260 622 623 
3	167 621 622 
3	149 620 621 
3	372 619 620 
3	295 618 619 
3	321 617 618 
3	170 616 617 
3	40 615 616 
3	385 614 615 
3	62 613 614 
3	48 612 613 
3	240 611 612 
3	366 610 611 
3	259 609 610 
3	278 608 609 
3	326 607 608 
3	400 606 607 
3	393 605 606 
3	132 604 605 
3	147 603 604 
3	163 602 603 
3	306 601 602 
3	230 600 601 
3	70 599 600 
3	363 598 599 
3	334 597 598 
3	427 596 597 
3	21 595 596 
3	417 594 595 
3	68 593 594 
3	430 592 593 
3	373 591 592 
3	382 590 591 
3	285 589 590 
3	224 588 589 
3	244 587 588 
3	310 586 587 
3	39 585 586 
3	231 584 585 
3	246 583 584 
3	255 582 583 
3	178 581 582 
3	1 580 581 
3	378 579 580 
3	252 578 579 
3	32 577 578 
3	202 576 577 
3	319 575 576 
3	82 574 575 
3	303 573 574 
3	14 572 573 
3	160 571 572 
3	86 570 571 
3	205 569 570 
3	194 568 569 
3	364 567 568 
3	420 566 567 
3	284 565 566 
3	431 564 565 
3	27 563 564 
3	63 562 563 
3	291 561 562 
3	341 560 561 
3	277 559 560 
3	271 558 559 
3	226 557 558 
3	41 556 557 
3	93 555 556 
3	44 554 555 
3	425 553 554 
3	150 552 553 
3	437 551 552 
3	173 550 551 
3	356 549 550 
3	95 548 549 
3	414 547 548 
3	416 546 547 
1	546 
1	50 
3	136 252 545 
3	202 544 545 
3	74 543 544 
3	319 542 543 
3	365 541 542 
3	75 540 541 
3	288 539 540 
3	336 538 539 
3	332 537 538 
3	290 536 537 
3	383 535 536 
3	70 534 535 
3	327 533 534 
3	294 532 533 
3	41 531 532 
3	68 530 531 
3	107 529 530 
3	368 528 529 
3	157 527 528 
3	123 526 527 
3	329 525 526 
3	307 524 525 
3	224 523 524 
3	172 522 523 
3	396 521 522 
3	269 520 521 
1	520 
3	29 300 519 
3	407 518 519 
3	37 517 518 
3	74 516 517 
3	189 515 516 
3	193 514 515 
3	330 513 514 
3	351 512 513 
3	165 511 512 
3	16 510 511 
3	114 509 510 
3	60 508 509 
3	234 507 508 
3	325 506 507 
3	394 505 506 
3	345 504 505 
3	259 503 504 
3	17 502 503 
3	143 501 502 
3	375 500 501 
3	76 499 500 
3	401 498 499 
3	297 497 498 
3	168 496 497 
3	70 495 496 
3	208 494 495 
3	280 493 494 
3	270 492 493 
3	23 491 492 
3	235 490 491 
3	66 489 490 
3	282 488 489 
1	488 
3	122 176 487 
3	274 486 487 
3	403 485 486 
3	129 484 485 
3	250 483 484 
3	42 482 483 
3	359 481 482 
3	322 480 481 
3	263 479 480 
3	142 478 479 
3	314 477 478 
3	287 476 477 
3	234 475 476 
3	317 474 475 
1	474 
3	57 252 473 
3	347 472 473 
3	183 471 472 
3	202 470 471 
3	74 469 470 
3	319 468 469 
3	189 467 468 
3	309 466 467 
3	352 465 466 
3	273 464 465 
3	14 463 464 
3	174 462 463 
3	421 461 462 
3	186 460 461 
3	222 459 460 
3	11 458 459 
3	336 457 458 
3	139 456 457 
3	259 455 456 
3	59 454 455 
3	84 453 454 
3	228 452 453 
3	377 451 452 
3	10 450 451 
3	199 449 450 
3	70 448 449 
3	265 447 448 
3	41 446 447 
3	270 445 446 
3	68 444 445 
3	368 443 444 
3	172 442 443 
3	310 441 442 
3	173 440 441 
3	262 439 440 
3	293 438 439 
1	438 
1	121 
1	189 
1	129 
1	109 
1	88 
1	392 
1	71 
1	165 
1	229 
1	30 
1	320 
1	135 
1	422 
1	145 
1	131 
1	265 
1	388 
1	58 
1	102 
1	200 
1	73 
1	340 
1	87 
1	404 
1	243 
1	412 
1	309 
1	387 
1	203 
1	342 
1	361 
1	357 
1	108 
1	16 
1	234 
1	232 
1	196 
1	228 
1	12 
1	401 
1	140 
1	201 
1	270 
1	23 
1	424 
1	142 
1	166 
1	241 
1	148 
1	434 
1	167 
1	365 
1	321 
1	116 
1	335 
1	171 
1	366 
1	394 
1	408 
1	326 
1	398 
1	254 
1	163 
1	272 
1	118 
1	168 
1	280 
1	19 
1	363 
1	21 
1	98 
1	68 
1	430 
1	157 
1	285 
1	39 
1	51 
1	94 
1	312 
1	162 
1	46 
1	252 
1	152 
1	261 
1	222 
1	364 
1	216 
1	194 
1	69 
1	60 
1	341 
1	53 
1	103 
1	226 
1	275 
1	150 
1	437 
1	91 
1	113 
1	211 
1	90 
1	298 
1	124 
1	183 
1	409 
1	74 
1	217 
1	100 
1	119 
1	65 
1	380 
1	4 
1	11 
1	288 
1	36 
1	50 
1	386 
1	137 
1	84 
1	418 
1	274 
1	410 
1	107 
1	72 
1	49 
1	257 
1	18 
1	210 
1	204 
1	389 
1	34 
1	273 
1	144 
1	323 
1	193 
1	263 
1	426 
1	186 
1	286 
1	56 
1	154 
1	164 
1	328 
1	301 
1	153 
1	239 
1	267 
1	115 
1	436 
1	117 
1	348 
1	223 
1	180 
1	190 
1	371 
1	379 
1	214 
1	260 
1	407 
1	225 
1	149 
1	344 
1	295 
1	3 
1	40 
1	55 
1	48 
1	158 
1	15 
1	400 
1	147 
1	306 
1	25 
1	70 
1	334 
1	292 
1	427 
1	368 
1	35 
1	287 
1	281 
1	178 
1	1 
1	26 
1	176 
1	32 
1	202 
1	250 
1	42 
1	134 
1	14 
1	80 
1	205 
1	354 
1	351 
1	75 
1	420 
1	284 
1	27 
1	350 
1	291 
1	22 
1	406 
1	266 
1	8 
1	83 
1	271 
1	96 
1	43 
1	66 
1	95 
1	248 
1	238 
1	339 
1	349 
1	125 
1	136 
1	227 
1	253 
1	352 
1	141 
1	188 
1	316 
1	191 
1	78 
1	336 
1	433 
1	258 
1	325 
1	213 
1	415 
1	143 
1	5 
1	299 
1	251 
1	377 
1	159 
1	175 
1	220 
1	249 
1	172 
1	47 
1	381 
1	396 
1	31 
1	370 
1	318 
1	403 
1	126 
1	177 
1	397 
1	374 
1	151 
1	64 
1	187 
1	54 
1	76 
1	155 
1	85 
1	383 
1	38 
1	355 
1	89 
1	235 
1	61 
1	333 
1	384 
1	376 
1	317 
1	198 
1	347 
1	37 
1	372 
1	391 
1	67 
1	428 
1	170 
1	421 
1	138 
1	62 
1	120 
1	399 
1	79 
1	127 
1	332 
1	278 
1	247 
1	393 
1	132 
1	130 
1	230 
1	215 
1	283 
1	221 
1	99 
1	417 
1	369 
1	373 
1	360 
1	382 
1	123 
1	307 
1	310 
1	7 
1	92 
1	378 
1	57 
1	110 
1	237 
1	112 
1	101 
1	319 
1	33 
1	82 
1	359 
1	303 
1	330 
1	402 
1	63 
1	343 
1	139 
1	13 
1	277 
1	297 
1	93 
1	279 
1	44 
1	425 
1	195 
1	411 
1	192 
1	161 
1	356 
1	305 
1	414 
1	52 
1	156 
1	169 
1	219 
1	311 
1	0 
1	174 
1	405 
1	308 
1	133 
1	114 
1	353 
1	419 
1	6 
1	77 
1	337 
1	184 
1	10 
1	429 
1	146 
1	105 
1	322 
1	338 
1	182 
1	413 
1	106 
1	181 
1	2 
1	331 
1	269 
1	395 
1	24 
1	111 
1	206 
1	423 
1	212 
1	367 
1	256 
1	17 
1	59 
1	290 
1	9 
1	346 
1	207 
1	327 
1	97 
1	45 
1	294 
1	245 
1	242 
1	209 
1	128 
1	314 
1	324 
1	233 
1	390 
1	329 
1	302 
1	293 
1	358 
1	435 
1	304 
1	185 
1	179 
1	197 
1	385 
1	240 
1	218 
1	315 
1	345 
1	259 
1	104 
1	313 
1	375 
1	81 
1	199 
1	362 
1	224 
1	244 
1	231 
1	246 
1	255 
1	264 
1	282 
1	300 
1	29 
1	122 
1	432 
1	268 
1	236 
1	160 
1	86 
1	431 
1	20 
1	28 
1	208 
1	41 
1	296 
1	276 
1	173 
1	289 
1	262 
1	416 
0	

8
 1 0 0.01 0.99 0 1 0 1
8
 1 0 0 1 0.05 0 0.95 1
8
 1 0 0 1 0.4 0 0.6 1
8
 1 0 0 1 0.2 0 0.8 1
8
 1 0 0 1 0.05 0 0.95 1
2
 0.03 1
8
 1 0 0.89 0.11 0.5 0.5 0.445 0.555
8
 1 0 0 1 0.89 0 0.11 1
8
 1 0 0 1 0 0 1 1
8
 1 0 0 1 0.5 0 0.5 1
8
 1 0 0 1 0.5 0 0.5 1
8
 1 0 0 1 0.5 0 0.5 1
8
 1 0 0 1 0.4 0 0.6 1
8
 1 0 0 1 0.1 0 0.9 1
8
 1 0 0 1 0.5 0 0.5 1
8
 1 0 0 1 0.01 0 0.99 1
8
 1 0 0 1 0.9 0 0.1 1
8
 1 0 0 1 0.5 0 0.5 1
8
 1 0 0 1 0.9 0 0.1 1
8
 1 0 0 1 0.01 0 0.99 1
8
 1 0 0 1 0.1 0 0.9 1
8
 1 0 0 1 0.01 0 0.99 1
8
 1 0 0 1 0.89 0 0.11 1
8
 1 0 0 1 0.5 0 0.5 1
8
 1 0 0 1 0.5 0 0.5 1
8
 1 0 0 1 0.4 0 0.6 1
8
 1 0 0 1 0.63 0 0.37 1
8
 1 0 0 1 0.8 0 0.2 1
8
 1 0 0 1 0.89 0 0.11 1
8
 1 0 0 1 0.89 0 0.11 1
8
 1 0 0 1 0.01 0 0.99 1
8
 1 0 0 1 0.5 0 0.5 1
8
 1 0 0 1 0.95 0 0.05 1
8
 1 0 0 1 0.89 0 0.11 1
8
 1 0 0 1 0.5 0 0.5 1
8
 1 0 0 1 0.5 0 0.5 1
8
 1 0 0 1 0.7 0 0.3 1
8
 1 0 0 1 0.5 0 0.5 1
8
 1 0 0 1 0.2 0 0.8 1
8
 1 0 0 1 0.89 0 0.11 1
8
 1 0 0 1 0.5 0 0.5 1
8
 1 0 0 1 0.89 0 0.11 1
8
 1 0 0 1 0.09 0 0.91 1
8
 1 0 0 1 0.09 0 0.91 1
8
 1 0 0 1 0.5 0 0.5 1
8
 1 0 0 1 0.89 0 0.11 1
8
 1 0 0 1 0.9 0 0.1 1
8
 1 0 0 1 0.5 0 0.5 1
8
 1 0 0 1 0.5 0 0.5 1
8
 1 0 0 1 0.89 0 0.11 1
8
 1 0 0 1 0.5 0 0.5 1
8
 1 0 0 1 0.5 0 0.5 1
8
 1 0 0 1 0.89 0 0.11 1
8
 1 0 0 1 0.5 0 0.5 1
8
 1 0 0 1 0.89 0 0.11 1
8
 1 0 0 1 0.5 0 0.5 1
8
 1 0 0 1 0.5 0 0.5 1
8
 1 0 0 1 0.5 0 0.5 1
8
 1 0 0 1 0 0 1 1
8
 1 0 0 1 0.1 0 0.9 1
8
 1 0 0 1 0.5 0 0.5 1
8
 1 0 0 1 0.5 0 0.5 1
8
 1 0 0 1 0.89 0 0.11 1
8
 1 0 0 1 0.89 0 0.11 1
8
 1 0 0 1 0.2 0 0.8 1
8
 1 0 0 1 0.4 0 0.6 1
8
 1 0 0 1 0.4 0 0.6 1
8
 1 0 0 1 0.89 0 0.11 1
8
 1 0 0 1 0.01 0 0.99 1
2
 0.03 1
8
 1 0 0.1 0.9 0.1 0.9 0.01 0.99
2
 0.03 1
8
 1 0 0.01 0.99 0.01 0.99 0.0001 0.9999
8
 1 0 0 1 0.01 0 0.99 1
8
 1 0 0 1 0.01 0 0.99 1
8
 1 0 0 1 0.01 0 0.99 1
8
 1 0 0 1 0.01 0 0.99 1
8
 1 0 0 1 0.01 0 0.99 1
8
 1 0 0 1 0.01 0 0.99 1
8
 1 0 0 1 0.01 0 0.99 1
8
 1 0 0 1 0.01 0 0.99 1
8
 1 0 0 1 0.8 0 0.2 1
8
 1 0 0 1 0.01 0 0.99 1
8
 1 0 0 1 0.01 0 0.99 1
8
 1 0 0 1 0.01 0 0.99 1
8
 1 0 0 1 0.01 0 0.99 1
8
 1 0 0 1 0.01 0 0.99 1
8
 1 0 0 1 0.01 0 0.99 1
8
 1 0 0 1 0.01 0 0.99 1
8
 1 0 0 1 0.01 0 0.99 1
8
 1 0 0 1 0.01 0 0.99 1
8
 1 0 0 1 0.01 0 0.99 1
2
 0.03 1
2
 0 0.8
2
 0.03 0.709
8
 1 0 0 1 0.8 0.2 0 1
8
 1 0 0 1 0.89 0 0.11 1
8
 1 0 0 1 0.5 0 0.5 1
8
 1 0 0 1 0.5 0 0.5 1
8
 1 0 0 1 0.6 0 0.4 1
8
 1 0 0 1 0.01 0 0.99 1
8
 1 0 0 1 0.5 0 0.5 1
8
 1 0 0 1 0.5 0 0.5 1
2
 0.03 1
8
 1 0 0 1 0 1 0 1
8
 1 0 0 1 0 0 1 1
8
 1 0 0 1 0 0 1 1
8
 1 0 0 1 0 0 1 1
8
 1 0 0 1 0 0 1 1
8
 1 0 0 1 0 0 1 1
8
 1 0 0 1 0 0 1 1
8
 1 0 0 1 0 0 1 1
8
 1 0 0 1 0 0 1 1
8
 1 0 0 1 0 0 1 1
8
 1 0 0 1 0 0 1 1
2
 0.03 1
8
 1 0 0 1 0.9 0.1 0 1
8
 1 0 0 1 0.2 0 0.8 1
8
 1 0 0 1 0.4 0 0.6 1
8
 1 0 0 1 0.5 0 0.5 1
8
 1 0 0 1 0 0 1 1
8
 1 0 0 1 0.9 0 0.1 1
8
 1 0 0 1 0.5 0 0.5 1
8
 1 0 0 1 0.89 0 0.11 1
8
 1 0 0 1 0.5 0 0.5 1
8
 1 0 0 1 0 0 1 1
8
 1 0 0 1 0.89 0 0.11 1
8
 1 0 0 1 0.5 0 0.5 1
8
 1 0 0 1 0.2 0 0.8 1
8
 1 0 0 1 0.4 0 0.6 1
8
 1 0 0 1 0.1 0 0.9 1
8
 1 0 0 1 0.5 0 0.5 1
8
 1 0 0 1 0.5 0 0.5 1
8
 1 0 0 1 0.1 0 0.9 1
8
 1 0 0 1 0 0 1 1
8
 1 0 0 1 0.5 0 0.5 1
8
 1 0 0 1 0.01 0 0.99 1
8
 1 0 0 1 0 0 1 1
8
 1 0 0 1 0 0 1 1
8
 1 0 0 1 0 0 1 1
8
 1 0 0 1 0 0 1 1
8
 1 0 0 1 0.5 0 0.5 1
8
 1 0 0 1 0.9 0 0.1 1
8
 1 0 0 1 0.5 0 0.5 1
8
 1 0 0 1 0 0 1 1
8
 1 0 0 1 0.5 0 0.5 1
8
 1 0 0 1 0.9 0 0.1 1
8
 1 0 0 1 0.5 0 0.5 1
8
 1 0 0 1 0.1 0 0.9 1
8
 1 0 0 1 0 0 1 1
8
 1 0 0 1 0.1 0 0.9 1
8
 1 0 0 1 0.5 0 0.5 1
8
 1 0 0 1 0.9 0 0.1 1
8
 1 0 0 1 0.5 0 0.5 1
8
 1 0 0 1 0.5 0 0.5 1
8
 1 0 0 1 0.9 0 0.1 1
8
 1 0 0 1 0.09 0 0.91 1
8
 1 0 0 1 0.5 0 0.5 1
8
 1 0 0 1 0.1 0 0.9 1
8
 1 0 0 1 0.5 0 0.5 1
8
 1 0 0 1 0.5 0 0.5 1
8
 1 0 0 1 0.9 0 0.1 1
8
 1 0 0 1 0.09 0 0.91 1
8
 1 0 0 1 0.5 0 0.5 1
8
 1 0 0 1 0.5 0 0.5 1
8
 1 0 0 1 0 0 1 1
8
 1 0 0 1 0.5 0 0.5 1
8
 1 0 0 1 0 0 1 1
8
 1 0 0 1 0.5 0 0.5 1
8
 1 0 0 1 0.1 0 0.9 1
8
 1 0 0 1 0.5 0 0.5 1
8
 1 0 0 1 0.57 0 0.43 1
8
 1 0 0 1 0 0 1 1
8
 1 0 0 1 0 0 1 1
8
 1 0 0 1 0.5 0 0.5 1
8
 1 0 0 1 0.5 0 0.5 1
8
 1 0 0 1 0.9 0 0.1 1
8
 1 0 0 1 0 0 1 1
8
 1 0 0 1 0.5 0 0.5 1
8
 1 0 0 1 0.1 0 0.9 1
8
 1 0 0 1 0.5 0 0.5 1
8
 1 0 0 1 0.1 0 0.9 1
8
 1 0 0 1 0.5 0 0.5 1
8
 1 0 0 1 0.4 0 0.6 1
8
 1 0 0 1 0.5 0 0.5 1
8
 1 0 0 1 0 0 1 1
8
 1 0 0 1 0.5 0 0.5 1
8
 1 0 0 1 0.9 0 0.1 1
8
 1 0 0 1 0 0 1 1
8
 1 0 0 1 0.5 0 0.5 1
8
 1 0 0 1 0.89 0 0.11 1
8
 1 0 0 1 0.5 0 0.5 1
8
 1 0 0 1 0.5 0 0.5 1
8
 1 0 0 1 0 0 1 1
8
 1 0 0 1 0.5 0 0.5 1
8
 1 0 0 1 0 0 1 1
8
 1 0 0 1 0.4 0 0.6 1
8
 1 0 0 1 0.5 0 0.5 1
8
 1 0 0 1 0 0 1 1
8
 1 0 0 1 0 0 1 1
8
 1 0 0 1 0.1 0 0.9 1
8
 1 0 0 1 0.6 0 0.4 1
8
 1 0 0 1 0.5 0 0.5 1
8
 1 0 0 1 0.1 0 0.9 1
8
 1 0 0 1 0.4 0 0.6 1
8
 1 0 0 1 0 0 1 1
8
 1 0 0 1 0.5 0 0.5 1
8
 1 0 0 1 0 0 1 1
8
 1 0 0 1 0 0 1 1
8
 1 0 0 1 0.1 0 0.9 1
8
 1 0 0 1 0.59 0 0.41 1
8
 1 0 0 1 0 0 1 1
8
 1 0 0 1 0.4 0 0.6 1
8
 1 0 0 1 0 0 1 1
8
 1 0 0 1 0.5 0 0.5 1
8
 1 0 0 1 0.9 0 0.1 1
8
 1 0 0 1 0.5 0 0.5 1
8
 1 0 0 1 0 0 1 1
8
 1 0 0 1 0 0 1 1
8
 1 0 0 1 0.9 0 0.1 1
8
 1 0 0 1 0.6 0 0.4 1
8
 1 0 0 1 0.4 0 0.6 1
8
 1 0 0 1 0.5 0 0.5 1
8
 1 0 0 1 0.1 0 0.9 1
8
 1 0 0 1 0.4 0 0.6 1
8
 1 0 0 1 0 0 1 1
8
 1 0 0 1 0.5 0 0.5 1
8
 1 0 0 1 0.09 0 0.91 1
8
 1 0 0 1 0 0 1 1
8
 1 0 0 1 0 0 1 1
8
 1 0 0 1 0.5 0 0.5 1
8
 1 0 0 1 0 0 1 1
8
 1 0 0 1 0 0 1 1
8
 1 0 0 1 0.89 0 0.11 1
8
 1 0 0 1 0 0 1 1
8
 1 0 0 1 0.5 0 0.5 1
8
 1 0 0 1 0.5 0 0.5 1
8
 1 0 0 1 0.5 0 0.5 1
8
 1 0 0 1 0.5 0 0.5 1
8
 1 0 0 1 0.5 0 0.5 1
8
 1 0 0 1 0.5 0 0.5 1
8
 1 0 0 1 0 0 1 1
8
 1 0 0 1 0.5 0 0.5 1
8
 1 0 0 1 0.4 0 0.6 1
8
 1 0 0 1 0.5 0 0.5 1
8
 1 0 0 1 0.7 0 0.3 1
8
 1 0 0 1 0.5 0 0.5 1
8
 1 0 0 1 0.89 0 0.11 1
8
 1 0 0 1 0.5 0 0.5 1
8
 1 0 0 1 0.9 0 0.1 1
8
 1 0 0 1 0 0 1 1
8
 1 0 0 1 0.9 0 0.1 1
8
 1 0 0 1 0.5 0 0.5 1
8
 1 0 0 1 0.5 0 0.5 1
8
 1 0 0 1 0 0 1 1
8
 1 0 0 1 0 0 1 1
8
 1 0 0 1 0.75 0 0.25 1
8
 1 0 0 1 0 0 1 1
8
 1 0 0 1 0.09 0 0.91 1
8
 1 0 0 1 0.5 0 0.5 1
8
 1 0 0 1 0.5 0 0.5 1
8
 1 0 0 1 0 0 1 1
8
 1 0 0 1 0.9 0 0.1 1
8
 1 0 0 1 0.7 0 0.3 1
8
 1 0 0 1 0.4 0 0.6 1
8
 1 0 0 1 0.5 0 0.5 1
8
 1 0 0 1 0.1 0 0.9 1
8
 1 0 0 1 0 0 1 1
8
 1 0 0 1 0.6 0 0.4 1
8
 1 0 0 1 0.5 0 0.5 1
8
 1 0 0 1 0.4 0 0.6 1
8
 1 0 0 1 0.9 0 0.1 1
8
 1 0 0 1 0.5 0 0.5 1
8
 1 0 0 1 0.9 0 0.1 1
8
 1 0 0 1 0 0 1 1
8
 1 0 0 1 0 0 1 1
8
 1 0 0 1 0 0 1 1
8
 1 0 0 1 0.4 0 0.6 1
8
 1 0 0 1 0 0 1 1
8
 1 0 0 1 0.09 0 0.91 1
8
 1 0 0 1 0 0 1 1
8
 1 0 0 1 0.9 0 0.1 1
8
 1 0 0 1 0.5 0 0.5 1
8
 1 0 0 1 0 0 1 1
8
 1 0 0 1 0 0 1 1
8
 1 0 0 1 0 0 1 1
8
 1 0 0 1 0.9 0 0.1 1
8
 1 0 0 1 0.9 0 0.1 1
8
 1 0 0 1 0 0 1 1
8
 1 0 0 1 0.05 0 0.95 1
8
 1 0 0 1 0.5 0 0.5 1
8
 1 0 0 1 0.5 0 0.5 1
8
 1 0 0 1 0.5 0 0.5 1
8
 1 0 0 1 0 0 1 1
8
 1 0 0 1 0.5 0 0.5 1
8
 1 0 0 1 0 0 1 1
8
 1 0 0 1 0.1 0 0.9 1
8
 1 0 0 1 0 0 1 1
8
 1 0 0 1 0.5 0 0.5 1
8
 1 0 0 1 0 0 1 1
8
 1 0 0 1 0 0 1 1
8
 1 0 0 1 0.9 0 0.1 1
8
 1 0 0 1 0.01 0 0.99 1
2
 0.03 1
8
 1 0 0.9 0.1 0.9 0.1 0.81 0.19
8
 1 0 0 1 0 0 1 1
8
 1 0 0 1 0.3 0 0.7 1
8
 1 0 0 1 0.05 0 0.95 1
8
 1 0 0 1 0.5 0 0.5 1
8
 1 0 0 1 0.9 0 0.1 1
8
 1 0 0 1 0 0 1 1
8
 1 0 0 1 0.5 0 0.5 1
8
 1 0 0 1 0.5 0 0.5 1
8
 1 0 0 1 0.5 0 0.5 1
8
 1 0 0 1 0.89 0 0.11 1
8
 1 0 0 1 0.9 0 0.1 1
8
 1 0 0 1 0.9 0 0.1 1
8
 1 0 0 1 0.5 0 0.5 1
8
 1 0 0 1 0.9 0 0.1 1
8
 1 0 0 1 0.9 0 0.1 1
8
 1 0 0 1 0.9 0 0.1 1
8
 1 0 0 1 0 0 1 1
8
 1 0 0 1 0 0 1 1
8
 1 0 0 1 0.89 0 0.11 1
8
 1 0 0 1 0.9 0 0.1 1
8
 1 0 0 1 0.9 0 0.1 1
8
 1 0 0 1 0.5 0 0.5 1
8
 1 0 0 1 0.05 0 0.95 1
8
 1 0 0 1 0.89 0 0.11 1
8
 1 0 0 1 0.9 0 0.1 1
8
 1 0 0 1 0.4 0 0.6 1
8
 1 0 0 1 0.9 0 0.1 1
8
 1 0 0 1 0.9 0 0.1 1
8
 1 0 0 1 0.8 0 0.2 1
8
 1 0 0 1 0.9 0 0.1 1
8
 1 0 0 1 0.8 0 0.2 1
8
 1 0 0 1 0.94 0 0.06 1
8
 1 0 0 1 0.5 0 0.5 1
8
 1 0 0 1 0 0 1 1
8
 1 0 0 1 0.89 0 0.11 1
8
 1 0 0 1 0.3 0 0.7 1
8
 1 0 0 1 0.02 0 0.98 1
8
 1 0 0 1 0.5 0 0.5 1
8
 1 0 0 1 0.9 0 0.1 1
8
 1 0 0 1 0.9 0 0.1 1
8
 1 0 0 1 0.3 0 0.7 1
8
 1 0 0 1 0.9 0 0.1 1
8
 1 0 0 1 0.9 0 0.1 1
8
 1 0 0 1 0.5 0 0.5 1
8
 1 0 0 1 0.3 0 0.7 1
8
 1 0 0 1 0.5 0 0.5 1
8
 1 0 0 1 0.09 0 0.91 1
8
 1 0 0 1 0.3 0 0.7 1
8
 1 0 0 1 0.9 0 0.1 1
8
 1 0 0 1 0.9 0 0.1 1
8
 1 0 0 1 0.3 0 0.7 1
8
 1 0 0 1 0.94 0 0.06 1
8
 1 0 0 1 0.5 0 0.5 1
8
 1 0 0 1 0.9 0 0.1 1
8
 1 0 0 1 0.79 0 0.21 1
8
 1 0 0 1 0.5 0 0.5 1
8
 1 0 0 1 0.5 0 0.5 1
8
 1 0 0 1 0.5 0 0.5 1
8
 1 0 0 1 0.9 0 0.1 1
8
 1 0 0 1 0.01 0 0.99 1
8
 1 0 0 1 0.89 0 0.11 1
8
 1 0 0 1 0.8 0 0.2 1
8
 1 0 0 1 0.3 0 0.7 1
8
 1 0 0 1 0.89 0 0.11 1
8
 1 0 0 1 0.9 0 0.1 1
8
 1 0 0 1 0.9 0 0.1 1
8
 1 0 0 1 0.85 0 0.15 1
8
 1 0 0 1 0.89 0 0.11 1
8
 1 0 0 1 0.89 0 0.11 1
8
 1 0 0 1 0.8 0 0.2 1
8
 1 0 0 1 0.89 0 0.11 1
8
 1 0 0 1 0.3 0 0.7 1
8
 1 0 0 1 0.8 0 0.2 1
8
 1 0 0 1 0.9 0 0.1 1
8
 1 0 0 1 0.9 0 0.1 1
8
 1 0 0 1 0.5 0 0.5 1
8
 1 0 0 1 0.5 0 0.5 1
8
 1 0 0 1 0.9 0 0.1 1
8
 1 0 0 1 0.8 0 0.2 1
8
 1 0 0 1 0.01 0 0.99 1
8
 1 0 0 1 0.9 0 0.1 1
8
 1 0 0 1 0.9 0 0.1 1
8
 1 0 0 1 0.9 0 0.1 1
8
 1 0 0 1 0.8 0 0.2 1
8
 1 0 0 1 0.7 0 0.3 1
8
 1 0 0 1 0.2 0 0.8 1
8
 1 0 0 1 0.05 0 0.95 1
8
 1 0 0 1 0.8 0 0.2 1
8
 1 0 0 1 0.89 0 0.11 1
8
 1 0 0 1 0.9 0 0.1 1
8
 1 0 0 1 0.3 0 0.7 1
8
 1 0 0 1 0.9 0 0.1 1
8
 1 0 0 1 0.9 0 0.1 1
8
 1 0 0 1 0.5 0 0.5 1
8
 1 0 0 1 0.9 0 0.1 1
8
 1 0 0 1 0.5 0 0.5 1
8
 1 0 0 1 0 0 1 1
8
 1 0 0 1 0.4 0 0.6 1
8
 1 0 0 1 0.9 0 0.1 1
8
 1 0 0 1 0.3 0 0.7 1
8
 1 0 0 1 0.8 0 0.2 1
8
 1 0 0 1 0 0 1 1
8
 1 0 0 1 0.89 0 0.11 1
8
 1 0 0 1 0.3 0 0.7 1
8
 1 0 0 1 0.5 0 0.5 1
8
 1 0 0 1 0.8 0 0.2 1
8
 1 0 0 1 0.61 0 0.39 1
8
 1 0 0 1 0.86 0 0.14 1
8
 1 0 0 1 0.9 0 0.1 1
8
 1 0 0 1 0.94 0 0.06 1
8
 1 0 0 1 0.3 0 0.7 1
8
 1 0 0 1 0.01 0 0.99 1
8
 1 0 0 1 0.9 0 0.1 1
8
 1 0 0 1 0.9 0 0.1 1
8
 1 0 0 1 0.9 0 0.1 1
8
 1 0 0 1 0.9 0 0.1 1
8
 1 0 0 1 0.5 0 0.5 1
8
 1 0 0 1 0.1 0 0.9 1
8
 1 0 0 1 0.9 0 0.1 1
8
 1 0 0 1 0.9 0 0.1 1
8
 1 0 0 1 0.9 0 0.1 1
8
 1 0 0 1 0.9 0 0.1 1
8
 1 0 0 1 0 0 1 1
8
 1 0 0 1 0.9 0 0.1 1
8
 1 0 0 1 0.5 0 0.5 1
8
 1 0 0 1 0.5 0 0.5 1
8
 1 0 0 1 0.1 0 0.9 1
8
 1 0 0 1 0 0 1 1
8
 1 0 0 1 0 0 1 1
8
 1 0 0 1 0.3 0 0.7 1
8
 1 0 0 1 0.5 0 0.5 1
8
 1 0 0 1 0.2 0 0.8 1
8
 1 0 0 1 0 0 1 1
8
 1 0 0 1 0.9 0 0.1 1
8
 1 0 0 1 0.5 0 0.5 1
8
 1 0 0 1 0.89 0 0.11 1
8
 1 0 0 1 0.8 0 0.2 1
8
 1 0 0 1 0.89 0 0.11 1
8
 1 0 0 1 0.89 0 0.11 1
8
 1 0 0 1 0.89 0 0.11 1
8
 1 0 0 1 0.5 0 0.5 1
8
 1 0 0 1 0.9 0 0.1 1
8
 1 0 0 1 0.5 0 0.5 1
8
 1 0 0 1 0.5 0 0.5 1
8
 1 0 0 1 0.3 0 0.7 1
8
 1 0 0 1 0.9 0 0.1 1
8
 1 0 0 1 0.8 0 0.2 1
8
 1 0 0 1 0.8 0 0.2 1
8
 1 0 0 1 0.5 0 0.5 1
8
 1 0 0 1 0.8 0 0.2 1
8
 1 0 0 1 0.01 0 0.99 1
8
 1 0 0 1 0.5 0 0.5 1
8
 1 0 0 1 0.9 0 0.1 1
8
 1 0 0 1 0 0 1 1
8
 1 0 0 1 0.3 0 0.7 1
8
 1 0 0 1 0.5 0 0.5 1
8
 1 0 0 1 0.4 0 0.6 1
8
 1 0 0 1 0.8 0 0.2 1
8
 1 0 0 1 0.9 0 0.1 1
8
 1 0 0 1 0.9 0 0.1 1
8
 1 0 0 1 0.89 0 0.11 1
8
 1 0 0 1 0.2 0 0.8 1
8
 1 0 0 1 0.9 0 0.1 1
8
 1 0 0 1 0.89 0 0.11 1
8
 1 0 0 1 0.94 0 0.06 1
2
 0.03 1
2
 0.03 0.806
8
 1 0 0.7 0.3 0.5 0.5 0.35 0.65
8
 1 0 0 1 0.5 0 0.5 1
8
 1 0 0 1 0.4 0 0.6 1
8
 1 0 0 1 0.89 0 0.11 1
8
 1 0 0 1 0.4 0 0.6 1
8
 1 0 0 1 0.5 0 0.5 1
8
 1 0 0 1 0.5 0 0.5 1
8
 1 0 0 1 0.6 0 0.4 1
8
 1 0 0 1 0.9 0 0.1 1
8
 1 0 0 1 0.01 0 0.99 1
8
 1 0 0 1 0.1 0 0.9 1
8
 1 0 0 1 0.5 0 0.5 1
8
 1 0 0 1 0.5 0 0.5 1
8
 1 0 0 1 0.95 0 0.05 1
8
 1 0 0 1 0.05 0 0.95 1
8
 1 0 0 1 0.5 0 0.5 1
8
 1 0 0 1 0.95 0 0.05 1
8
 1 0 0 1 0.5 0 0.5 1
8
 1 0 0 1 0.05 0 0.95 1
8
 1 0 0 1 0.5 0 0.5 1
8
 1 0 0 1 0.5 0 0.5 1
8
 1 0 0 1 0.5 0 0.5 1
8
 1 0 0 1 0.1 0 0.9 1
8
 1 0 0 1 0.5 0 0.5 1
8
 1 0 0 1 0.5 0 0.5 1
8
 1 0 0 1 0.5 0 0.5 1
2
 0.03 1
8
 1 0 0.89 0.11 0.5 0.5 0.445 0.555
8
 1 0 0 1 0.05 0 0.95 1
8
 1 0 0 1 0.5 0 0.5 1
8
 1 0 0 1 0.2 0 0.8 1
8
 1 0 0 1 0.5 0 0.5 1
8
 1 0 0 1 0.4 0 0.6 1
8
 1 0 0 1 0.89 0 0.11 1
8
 1 0 0 1 0.5 0 0.5 1
8
 1 0 0 1 0.89 0 0.11 1
8
 1 0 0 1 0.5 0 0.5 1
8
 1 0 0 1 0.5 0 0.5 1
8
 1 0 0 1 0.5 0 0.5 1
8
 1 0 0 1 0.9 0 0.1 1
8
 1 0 0 1 0.5 0 0.5 1
8
 1 0 0 1 0.2 0 0.8 1
8
 1 0 0 1 0.6 0 0.4 1
8
 1 0 0 1 0.5 0 0.5 1
8
 1 0 0 1 0.5 0 0.5 1
8
 1 0 0 1 0.5 0 0.5 1
8
 1 0 0 1 0.9 0 0.1 1
8
 1 0 0 1 0.89 0 0.11 1
8
 1 0 0 1 0.89 0 0.11 1
8
 1 0 0 1 0.5 0 0.5 1
8
 1 0 0 1 0 0 1 1
8
 1 0 0 1 0.1 0 0.9 1
8
 1 0 0 1 0.7 0 0.3 1
8
 1 0 0 1 0.5 0 0.5 1
8
 1 0 0 1 0.5 0 0.5 1
8
 1 0 0 1 0.5 0 0.5 1
8
 1 0 0 1 0.5 0 0.5 1
8
 1 0 0 1 0.2 0 0.8 1
8
 1 0 0 1 0.5 0 0.5 1
2
 0.03 1
8
 1 0 0 1 0 1 0 1
8
 1 0 0 1 0 0 1 1
8
 1 0 0 1 0.8 0 0.2 1
8
 1 0 0 1 0.8 0 0.2 1
8
 1 0 0 1 0 0 1 1
8
 1 0 0 1 0 0 1 1
8
 1 0 0 1 0 0 1 1
8
 1 0 0 1 0.9 0 0.1 1
8
 1 0 0 1 0 0 1 1
8
 1 0 0 1 0.05 0 0.95 1
8
 1 0 0 1 0 0 1 1
8
 1 0 0 1 0 0 1 1
8
 1 0 0 1 0.9 0 0.1 1
8
 1 0 0 1 0.5 0 0.5 1
2
 0.03 1
8
 1 0 0.01 0.99 0.5 0.5 0.005 0.995
8
 1 0 0 1 0.2 0 0.8 1
8
 1 0 0 1 0.5 0 0.5 1
8
 1 0 0 1 0.5 0 0.5 1
8
 1 0 0 1 0.01 0 0.99 1
8
 1 0 0 1 0.89 0 0.11 1
8
 1 0 0 1 0.5 0 0.5 1
8
 1 0 0 1 0.5 0 0.5 1
8
 1 0 0 1 0.1 0 0.9 1
8
 1 0 0 1 0.5 0 0.5 1
8
 1 0 0 1 0.89 0 0.11 1
8
 1 0 0 1 0.9 0 0.1 1
8
 1 0 0 1 0.5 0 0.5 1
8
 1 0 0 1 0 0 1 1
8
 1 0 0 1 0.5 0 0.5 1
8
 1 0 0 1 0.01 0 0.99 1
8
 1 0 0 1 0.5 0 0.5 1
8
 1 0 0 1 0.9 0 0.1 1
8
 1 0 0 1 0.01 0 0.99 1
8
 1 0 0 1 0.89 0 0.11 1
8
 1 0 0 1 0.5 0 0.5 1
8
 1 0 0 1 0.89 0 0.11 1
8
 1 0 0 1 0.5 0 0.5 1
8
 1 0 0 1 0.01 0 0.99 1
8
 1 0 0 1 0.5 0 0.5 1
8
 1 0 0 1 0.01 0 0.99 1
8
 1 0 0 1 0.5 0 0.5 1
8
 1 0 0 1 0.3 0 0.7 1
8
 1 0 0 1 0.5 0 0.5 1
8
 1 0 0 1 0.1 0 0.9 1
8
 1 0 0 1 0.5 0 0.5 1
8
 1 0 0 1 0.09 0 0.91 1
8
 1 0 0 1 0.5 0 0.5 1
8
 1 0 0 1 0.89 0 0.11 1
8
 1 0 0 1 0.5 0 0.5 1
8
 1 0 0 1 0 0 1 1
2
 0.03 1
2
 0.99995 5e-05
2
 0.9999 0.0001
2
 0.9995 0.0005
2
 0.999995 5e-06
2
 0.9999 0.0001
2
 0.99999 1e-05
2
 0.99975 0.00025
2
 0.9999 0.0001
2
 0.99998 2e-05
2
 0.99999 1e-05
2
 0.999993 7e-06
2
 0.99998 2e-05
2
 1 4e-08
2
 0.99999 1e-05
2
 0.999999 1.4e-06
2
 0.999998 2e-06
2
 0.99995 5e-05
2
 0.9999 0.0001
2
 0.999977 2.342e-05
2
 0.99989 0.00011
2
 0.99998 2e-05
2
 0.9999 0.0001
2
 0.99998 2e-05
2
 0.99998 2e-05
2
 0.99995 5e-05
2
 0.99999 1e-05
2
 0.99992 8e-05
2
 0.99974 0.00026
2
 0.99991 9e-05
2
 1 1.1e-07
2
 0.9999 0.0001
2
 0.9999 0.0001
2
 0.99998 2e-05
2
 0.999995 5e-06
2
 0.9999 0.0001
2
 0.99999 1e-05
2
 0.999999 1.26e-06
2
 0.99996 4e-05
2
 0.9999 0.0001
2
 0.9999 0.0001
2
 0.99998 2e-05
2
 0.9999 0.0001
2
 0.9995 0.0005
2
 0.9999 0.0001
2
 0.99992 8e-05
2
 0.9999 0.0001
2
 0.99992 8e-05
2
 0.9999 0.0001
2
 0.9999 0.0001
2
 0.99989 0.00011
2
 0.9996 0.0004
2
 0.9999 0.0001
2
 0.99995 5e-05
2
 0.9995 0.0005
2
 0.99999 1e-05
2
 0.9999 0.0001
2
 0.999999 1e-06
2
 0.9999 0.0001
2
 0.9999 0.0001
2
 0.99999 1e-05
2
 0.9999 0.0001
2
 0.99995 5e-05
2
 0.99991 9e-05
2
 0.9996 0.0004
2
 0.99998 2e-05
2
 0.9998 0.0002
2
 0.9999 0.0001
2
 0.99999 1e-05
2
 0.99986 0.00014
2
 0.99982 0.00018
2
 0.9999 0.0001
2
 0.9999 0.0001
2
 0.99999 1e-05
2
 0.99996 4e-05
2
 0.99995 5e-05
2
 0.9991 0.0009
2
 0.9999 0.0001
2
 0.9998 0.0002
2
 0.9998 0.0002
2
 0.99996 4e-05
2
 0.99998 2e-05
2
 0.99996 4e-05
2
 0.9999 0.0001
2
 0.99998 2e-05
2
 0.99996 4e-05
2
 0.9999 0.0001
2
 0.99998 2e-05
2
 0.9997 0.0003
2
 0.9999 0.0001
2
 0.9999 0.0001
2
 0.99993 7e-05
2
 0.99997 3e-05
2
 0.9999 0.0001
2
 0.99991 9e-05
2
 0.9999 0.0001
2
 1 1e-08
2
 1 4e-08
2
 0.9999 0.0001
2
 0.99996 4e-05
2
 0.9999 0.0001
2
 0.9999 0.0001
2
 0.9999 0.0001
2
 0.99999 1e-05
2
 0.9999 0.0001
2
 0.999977 2.291e-05
2
 0.9996 0.0004
2
 0.9999 0.0001
2
 0.996 0.004
2
 0.999999 1e-06
2
 0.99989 0.00011
2
 0.9999 0.0001
2
 0.9995 0.0005
2
 0.999 0.001
2
 0.995 0.005
2
 0.99998 2.003e-05
2
 0.9985 0.0015
2
 0.99987 0.00013
2
 0.9997 0.0003
2
 0.9995 0.0005
2
 0.99995 5e-05
2
 0.99999 1e-05
2
 0.99995 5e-05
2
 0.997 0.003
2
 1 2.8e-07
2
 0.999991 8.59e-06
2
 0.99995 5e-05
2
 0.9985 0.0015
2
 0.999999 1e-06
2
 0.99995 5e-05
2
 0.9999 0.0001
2
 0.99999 1e-05
2
 0.9999 0.0001
2
 0.9999 0.0001
2
 0.9995 0.0005
2
 0.999996 4e-06
2
 0.999958 4.19e-05
2
 1 1.6e-07
2
 0.99999 1e-05
2
 0.9999 0.0001
2
 0.9999 0.0001
2
 0.9999 0.0001
2
 0.999 0.001
2
 0.9999 0.0001
2
 0.999969 3.12e-05
2
 0.999999 1e-06
2
 0.99975 0.00025
2
 0.9999 0.0001
2
 1 1e-08
2
 0.9999 0.0001
2
 0.9995 0.0005
2
 0.99999 1e-05
2
 1 1.4e-07
2
 0.999953 4.733e-05
2
 0.9998 0.0002
2
 0.9999 0.0001
2
 0.99998 2e-05
2
 0.9999 0.0001
2
 0.9999 0.0001
2
 0.99991 9e-05
2
 0.9999 0.0001
2
 0.99995 5e-05
2
 0.9995 0.0005
2
 0.99994 6e-05
2
 0.99991 9e-05
2
 0.99991 9e-05
2
 0.9999 0.0001
2
 0.9999 0.0001
2
 0.99995 5e-05
2
 0.9999 0.0001
2
 0.9995 0.0005
2
 1 2.9e-07
2
 1 6e-08
2
 0.99994 6e-05
2
 0.9998 0.0002
2
 0.999994 6e-06
2
 0.9999 0.0001
2
 0.9998 0.0002
2
 0.99999 1e-05
2
 0.9999 0.0001
2
 0.99997 3e-05
2
 0.99997 3e-05
2
 0.99997 3e-05
2
 0.999999 1e-06
2
 0.9997 0.0003
2
 0.9999 0.0001
2
 1 1e-08
2
 0.99998 2e-05
2
 0.9999 0.0001
2
 0.9985 0.0015
2
 0.9996 0.0004
2
 0.9999 0.0001
2
 0.9999 0.0001
2
 1 1e-08
2
 0.9999 0.0001
2
 0.99995 5e-05
2
 0.99997 3e-05
2
 0.99998 2e-05
2
 1 1e-07
2
 1 1e-07
2
 0.9999 0.0001
2
 0.99997 3e-05
2
 0.99999 1e-05
2
 0.9999 0.0001
2
 0.9999 0.0001
2
 0.99996 4e-05
2
 0.9999 0.0001
2
 0.999585 0.000415
2
 0.9999 0.0001
2
 0.9998 0.0002
2
 0.999999 1e-06
2
 0.9999 0.0001
2
 0.99993 7e-05
2
 0.9996 0.0004
2
 0.9995 0.0005
2
 0.99995 5e-05
2
 0.9999 0.0001
2
 0.99991 9e-05
2
 0.99997 3e-05
2
 0.99998 2e-05
2
 0.99995 5e-05
2
 0.9999 0.0001
2
 0.9999 0.0001
2
 0.999999 8.1e-07
2
 0.9998 0.0002
2
 0.99999 1e-05
2
 0.9981 0.0019
2
 0.99995 5e-05
2
 0.9999 0.0001
2
 0.99989 0.00011
2
 0.9999 0.0001
2
 0.9999 0.0001
2
 0.9999 0.0001
2
 0.99989 0.00011
2
 0.9999 0.0001
2
 0.99975 0.00025
2
 0.9995 0.0005
2
 0.9999 0.0001
2
 0.9999 0.0001
2
 0.999999 1e-06
2
 0.99994 6e-05
2
 0.9996 0.0004
2
 0.9999 0.0001
2
 0.9999 0.0001
2
 0.99995 5e-05
2
 0.9998 0.0002
2
 0.99999 1e-05
2
 0.9999 0.0001
2
 0.998 0.002
2
 0.999998 2e-06
2
 0.9999 0.0001
2
 0.99989 0.00011
2
 0.99995 5e-05
2
 0.9999 0.0001
2
 0.999 0.001
2
 0.99996 4e-05
2
 0.9999 0.0001
2
 0.9999 0.0001
2
 0.99981 0.00019
2
 0.9999 0.0001
2
 0.9999 0.0001
2
 1 1e-08
2
 1 1.7e-07
2
 0.9999 0.0001
2
 0.99995 5e-05
2
 1 1.1e-07
2
 0.9999 0.0001
2
 0.99997 3e-05
2
 0.99999 1e-05
2
 0.9999 0.0001
2
 0.99999 1e-05
2
 0.9999 0.0001
2
 1 1e-07
2
 1 6e-08
2
 0.99996 4e-05
2
 0.9999 0.0001
2
 0.99995 5e-05
2
 0.999973 2.7e-05
2
 0.99991 9e-05
2
 0.99999 1e-05
2
 0.9999 0.0001
2
 0.9999 0.0001
2
 0.9999 0.0001
2
 0.99982 0.00018
2
 0.9999 0.0001
2
 0.9999 0.0001
2
 0.9999 0.0001
2
 0.99995 5e-05
2
 1 1e-08
2
 0.9999 0.0001
2
 0.99985 0.00015
2
 0.99998 2e-05
2
 0.9999 0.0001
2
 0.9998 0.0002
2
 0.9999 0.0001
2
 0.9998 0.0002
2
 0.9995 0.0005
2
 0.99999 1e-05
2
 0.999997 2.88e-06
2
 0.9995 0.0005
2
 0.99922 0.00078
2
 0.9994 0.0006
2
 0.9995 0.0005
2
 0.9998 0.0002
2
 0.99995 5e-05
2
 0.9998 0.0002
2
 0.9999 0.0001
2
 1 5e-07
2
 0.99994 6e-05
2
 0.9994 0.0006
2
 0.99999 1e-05
2
 0.99995 5e-05
2
 0.9999 0.0001
2
 0.9995 0.0005
2
 0.99999 1e-05
2
 0.9999 0.0001
2
 0.9999 0.0001
2
 0.9999 0.0001
2
 0.99984 0.00016
2
 0.999 0.001
2
 0.99989 0.00011
2
 0.9996 0.0004
2
 0.99997 3e-05
2
 0.999 0.001
2
 0.99991 9e-05
2
 0.996 0.004
2
 0.9999 0.0001
2
 0.99996 4e-05
2
 1 4e-08
2
 0.9999 0.0001
2
 0.99995 5e-05
2
 0.99998 2e-05
2
 0.9965 0.0035
2
 0.9999 0.0001
2
 0.9928 0.0072
2
 0.9999 0.0001
2
 0.9999 0.0001
2
 0.9997 0.0003
2
 0.99985 0.00015
2
 0.99996 4e-05
2
 0.9999 0.0001
2
 0.9999 0.0001
2
 0.9985 0.0015
2
 0.9999 0.0001
2
 0.99995 5e-05
2
 1 1e-08
2
 0.999784 0.000216
2
 0.9988 0.0012
2
 0.99995 5e-05
2
 0.997 0.003
2
 0.9999 0.0001
2
 0.9995 0.0005
2
 0.999999 6.2e-07
2
 0.99995 5e-05
2
 0.9999 0.0001
2
 0.99998 2e-05
2
 0.9999 0.0001
2
 0.9999 0.0001
2
 1 1.2e-07
2
 0.99998 2e-05
2
 0.99996 4e-05
2
 0.9999 0.0001
2
 0.9999 0.0001
2
 0.9997 0.0003
2
 0.99998 2e-05
2
 0.999997 2.82e-06
2
 0.99999 1e-05
2
 0.9999 0.0001
2
 0.9999 0.0001
2
 0.9999 0.0001
2
 1 2e-08
2
 0.9999 0.0001
2
 0.999907 9.332e-05
2
 0.9994 0.0006
2
 0.99985 0.00015
2
 0.9999 0.0001
2
 0.9999 0.0001
2
 0.9999 0.0001
2
 0.999999 5.4e-07
2
 0.9999 0.0001
2
 0.9995 0.0005
2
 0.999999 1e-06
2
 0.99997 3e-05
2
 0.999 0.001
2
 0.99995 5e-05
2
 0.999992 8e-06
2
 0.99975 0.00025
2
 0.9999 0.0001
2
 0.9999 0.0001
2
 0.99999 1e-05
2
 0.9999 0.0001
2
 0.9999 0.0001
2
 0.99998 2e-05
2
 0.999 0.001
2
 0.9999 0.0001
2
 0.99999 1e-05
2
 0.9995 0.0005
2
 0.99995 5e-05
2
 0.9999 0.0001
2
 0.9995 0.0005
2
 0.99999 1e-05
2
 0.999 0.001
2
 0.99999 1e-05
2
 0.999999 1e-06
2
 0.99997 3e-05
2
 0.99991 9e-05
2
 0.9985 0.0015
2
 0.9999 0.0001
2
 0.99995 5e-05
2
 1 1e-07
2
 0.9999 0.0001
2
 0.9995 0.0005
2
 0.9999 0.0001
2
 0.99992 8e-05
2
 0.9999 0.0001
2
 0.99997 3e-05
2
 0.99994 6e-05
2
 0.99999 1e-05
2
 0.9999 0.0001
2
 0.9999 0.0001
2
 0.9999 0.0001
2
 0.9991 0.0009
2
 0.9999 0.0001
2
 0.9995 0.0005
2
 0.99995 5e-05
2
 0.9999 0.0001
2
 0.9999 0.0001
2
 0.999 0.001
2
 0.99989 0.00011
2
 0.9999 0.0001
2
 0.9999 0.0001
2
 1 1e-07
2
 0.9999 0.0001
2
 0.99999 1e-05
2
 0.99997 3e-05
2
 0.9999 0.0001
2
 0.99998 2e-05
2
 0.99996 4e-05
2
 1 5e-07
1
 1

